files/upTests/matrixes8/0001.eprime.solution
language ESSENCE' 1.0
$ minion Nodes: 47
$ minion TotalTime: 0.009104
$ Savile Row TotalTime: 0.538
letting x_ExplicitVarSize_tuple1 be        [[0, 0, 0, 0, 0, 0, 0, 0, 1], [0, 0, 0, 0, 0, 0, 0, 1, 1]]
letting x_ExplicitVarSize_tuple2_tuple2 be [[7, 7, 7, 7, 7, 7, 7, 7, 7], [7, 7, 7, 7, 7, 7, 7, 8, 9]]
letting x_ExplicitVarSize_tuple2_tuple1 be [[4, 4, 4, 4, 4, 4, 4, 4, 4], [4, 4, 4, 4, 4, 4, 4, 5, 6]]
